 Minimize
[ 1.0000000000000000 Z0 * Z1  ]
Subject to
c1: [ 1.0000000000000000 Z0 * Z0 -1.0000000000000000 Z0 * Z1 -2.0000000000000000 Z0 * Z2  + 1.0000000000000000 Z2 * Z2  + 100.0000000000000000 Z3 * Z3 -200.0000000000000000 Z3 * Z4  + 100.0000000000000000 Z4 * Z4  ] = 0.000000
ac1: Z0 - 1 = 0
ac2: [ 1.0000000000000000 Z0 * Z4 -1.0000000000000000 Z2 * Z2  ] = 0
Bounds
1 <= Z0 <= 1
-100.0000000000000000 <= Z1 <= 100.0000000000000000
-2.0000000000000000 <= Z2 <= 2.0000000000000000
-2.0000000000000000 <= Z3 <= 2.0000000000000000
-4.0000000000000000 <= Z4 <= 4.0000000000000000
End